c is-sat
p cnf 10 72
-4 -6 8 0
-7 -1 -5 0
3 7 4 0
2 7 1 0
-6 -4 5 0
-3 10 -4 0
2 1 9 0
4 8 -10 0
-8 -7 -10 0
-4 -7 9 0
-3 6 10 0
10 -8 -9 0
6 10 -3 0
-4 -2 9 0
-3 -6 -7 0
-3 -2 -10 0
5 -8 -9 0
-1 6 10 0
-5 -1 -10 0
4 -10 -3 0
-7 -5 -10 0
-9 -2 -4 0
-2 -4 -6 0
-9 -4 1 0
-5 -4 -10 0
2 -8 6 0
-2 1 9 0
-3 -8 -9 0
-8 -4 -9 0
-10 -6 -8 0
-1 7 -5 0
-5 -4 -9 0
6 4 5 0
-2 -8 -9 0
-9 -10 -4 0
-2 -1 -9 0
4 5 8 0
-5 8 -6 0
8 -6 -1 0
10 -6 4 0
-7 -8 -4 0
8 2 -1 0
8 2 -4 0
-5 1 -3 0
-10 -3 -1 0
-8 5 -3 0
-4 -6 -7 0
-5 -1 8 0
-2 -10 -5 0
-4 10 -3 0
1 8 7 0
-4 -10 -3 0
-6 10 -1 0
10 -2 -8 0
-9 -8 1 0
-6 5 -7 0
3 -6 -8 0
-9 -4 -3 0
10 -1 -9 0
-2 -4 -9 0
8 -6 -10 0
-1 3 7 0
7 2 -8 0
-4 -10 5 0
8 -6 -2 0
1 7 -2 0
-3 -4 -8 0
9 -4 -5 0
8 -2 -5 0
-1 -9 -10 0
5 -1 -6 0
-2 -6 -7 0
